sat
(
(define-fun sym5291 () String "G")
(define-fun sym6323 () String "K")
(define-fun sym6944 () String "K")
(define-fun sym5909 () String "K")
(define-fun sym209 () String "Y")
(define-fun sym4859 () String "G")
(define-fun sym2756 () String "G")
(define-fun sym4657 () String "G")
(define-fun sym5700 () String "H")
(define-fun sym2331 () String "K")
(define-fun sym4014 () String "L")
(define-fun sym2110 () String "H")
(define-fun sym1461 () String "G")
(define-fun sym3164 () String "G")
(define-fun sym161 () String "")
(define-fun sym3380 () String "G")
(define-fun sym7024 () String "A")
(define-fun sym6530 () String "K")
(define-fun sym6116 () String "K")
(define-fun sym811 () String "G")
(define-fun sym6737 () String "K")
(define-fun sym1677 () String "G")
(define-fun sym551 () String "K")
(define-fun sym2544 () String "L")
(define-fun sym2962 () String "G")
(define-fun sym3798 () String "G")
(define-fun sym1893 () String "G")
(define-fun sym4226 () String "H")
(define-fun sym1036 () String "G")
(define-fun sym3596 () String "G")
(define-fun sym4441 () String "G")
(define-fun sym1252 () String "G")
(define-fun sym5075 () String "G")
(define-fun sym5493 () String "G")
)
